Set parameter Username
Academic license - for non-commercial use only - expires 2024-10-29
Set parameter LazyConstraints to value 1
Set parameter TimeLimit to value 600
Gurobi Optimizer version 10.0.0 build v10.0.0rc2 (linux64)

CPU model: AMD FX(tm)-4300 Quad-Core Processor, instruction set [SSE2|AVX]
Thread count: 2 physical cores, 4 logical processors, using up to 4 threads

Optimize a model with 4250 rows, 1000 columns and 4999 nonzeros
Model fingerprint: 0x8ef002b8
Variable types: 0 continuous, 1000 integer (1000 binary)
Coefficient statistics:
  Matrix range     [1e+00, 1e+00]
  Objective range  [1e+00, 1e+01]
  Bounds range     [1e+00, 1e+00]
  RHS range        [1e+00, 1e+00]
Presolve removed 4020 rows and 13 columns
Presolve time: 0.00s
Presolved: 230 rows, 987 columns, 951 nonzeros
Variable types: 0 continuous, 987 integer (987 binary)

Root relaxation: objective 5.820000e+02, 202 iterations, 0.00 seconds (0.00 work units)

    Nodes    |    Current Node    |     Objective Bounds      |     Work
 Expl Unexpl |  Obj  Depth IntInf | Incumbent    BestBd   Gap | It/Node Time

     0     0  582.00000    0    -          -  582.00000      -     -    4s
     0     0  582.00000    0    -          -  582.00000      -     -    5s
     0     0  583.00000    0    -          -  583.00000      -     -    6s
     0     0  583.00000    0    -          -  583.00000      -     -    7s
     0     0  584.00000    0    -          -  584.00000      -     -    8s
     0     0  587.50000    0    3          -  587.50000      -     -    8s
     0     0  809.00000    0    -          -  809.00000      -     -   11s
     0     0  809.00000    0    -          -  809.00000      -     -   12s
     0     0  809.00000    0    -          -  809.00000      -     -   13s
     0     0  809.00000    0    -          -  809.00000      -     -   14s
H    0     0                    1719.0000000  809.50000  52.9%     -   15s
     0     0  809.50000    0    5 1719.00000  809.50000  52.9%     -   15s
     0     0  886.00000    0    - 1719.00000  886.00000  48.5%     -   25s
     0     0  886.00000    0    - 1719.00000  886.00000  48.5%     -   26s
H    0     0                    1514.0000000  886.00000  41.5%     -   27s
     0     0  886.00000    0    5 1514.00000  886.00000  41.5%     -   27s
     0     0  930.00000    0    - 1514.00000  930.00000  38.6%     -   35s
     0     0  930.00000    0    - 1514.00000  930.00000  38.6%     -   36s
H    0     0                    1433.0000000  930.50000  35.1%     -   37s
     0     0  930.50000    0    4 1433.00000  930.50000  35.1%     -   37s
H    0     0                    1398.0000000  946.33333  32.3%     -   44s
     0     0  946.33333    0   10 1398.00000  946.33333  32.3%     -   44s
     0     0  952.66667    0    9 1398.00000  952.66667  31.9%     -   55s
     0     0  952.66667    0    9 1398.00000  952.66667  31.9%     -   65s
H    0     2                    1385.0000000  952.66667  31.2%     -   74s
     0     2  972.00000    0    4 1385.00000  972.00000  29.8%     -   74s
     3     6  982.80000    2    7 1385.00000  977.50000  29.4%   102   77s
     7    10  982.80000    3   11 1385.00000  982.60000  29.1%  84.1   84s
    15    20  982.80000    6    8 1385.00000  982.60000  29.1%  45.1   92s
    33    65  982.80000   14    8 1385.00000  982.60000  29.1%  23.9  111s
    64    88  983.05882   28   10 1385.00000  982.60000  29.1%  15.0  142s
    89   120  983.12500   38    8 1385.00000  982.60000  29.1%  12.7  168s
   120   146  983.21429   52    9 1385.00000  982.60000  29.1%  10.4  199s
   156   190  983.33333   65    6 1385.00000  982.60000  29.1%   8.9  235s
   201   207  983.54545   80   10 1385.00000  982.60000  29.1%   7.8  281s
   223   254  984.85714   94    8 1385.00000  982.60000  29.1%   7.5  303s
   274   344  982.80000   14    8 1385.00000  982.60000  29.1%   7.3  353s
   370   461  985.83333   42    7 1385.00000  982.60000  29.1%   6.8  449s
   514   594  986.50000   91    4 1385.00000  982.60000  29.1%   6.4  590s

Cutting planes:
  User: 8
  MIR: 3
  Zero half: 1
  Lazy constraints: 100

Explored 653 nodes (4462 simplex iterations) in 727.87 seconds (0.45 work units)
Thread count was 4 (of 4 available processors)

Solution count 5: 1385 1398 1433 ... 1719

Time limit reached
Best objective 1.385000000000e+03, best bound 9.830000000000e+02, gap 29.0253%

User-callback calls 1873, time in user-callback 727.11 sec
